Name: EasyAcademy10
Courses: 50
Rooms: 8
Days: 6
Periods_per_day: 12
Curricula: 47
Min_Max_Daily_Lectures: 3 8
UnavailabilityConstraints: 1184
RoomConstraints: 59

COURSES:
c3028 t171 6 3 25 1
c3033 t120 6 3 20 1
c3035 t121 6 3 25 1
c3038 t189 4 2 25 1
c3039 t129 6 3 35 1
c3040 t135 4 2 10 1
c3041 t130 6 3 125 1
c3043 t134 6 3 70 1
c3044 t135 4 2 20 1
c3047 t138 6 3 130 1
c3048 t127 6 3 130 1
c3049 t141 6 3 65 1
c3052 t142 6 3 70 1
c3053 t145 6 3 40 1
c3054 t125 6 3 35 1
c3055 t137 6 3 55 1
c3057 t192 6 3 30 1
c3061 t148 6 3 45 1
c3062 t195 6 3 10 1
c3074 t128 6 3 20 1
c3075 t157 6 3 90 1
c3077 t158 6 3 85 1
c3078 t159 6 3 35 1
c3079 t159 4 2 16 1
c3080 t147 6 3 65 1
c3083 t161 6 3 18 1
c3084 t163 6 3 50 1
c3085 t203 6 3 65 1
c3089 t216 6 3 30 1
c3091 t166 6 3 100 1
c3092 t576 6 3 70 1
c3093 t162 6 3 20 1
c3113 t217 6 3 30 1
c3119 t176 6 3 20 1
c3134 t128 4 2 10 1
c3140 t222 4 2 12 1
c3141 t222 6 3 25 1
c3152 t143 4 2 18 1
c3168 t150 6 3 70 1
c3176 t147 4 2 20 1
c3183 t160 6 3 65 1
c3184 t160 6 3 15 1
c3189 t162 6 3 40 1
c3193 t600 6 3 10 1
c3203 t200 6 3 25 1
c3204 t210 6 3 90 1
c3240 t213 6 3 90 1
c3799 t228 6 3 90 1
c3800 t152 6 3 90 1
c3803 t132 6 3 70 1

ROOMS:
r116 100 0
r117 19 0
r118 32 0
r219 140 1
r123 70 1
r220 140 1
r126 70 1
r221 265 6

CURRICULA:
cu293 5 c3041 c3048 c3055 c3189 c3204
cu294 5 c3041 c3048 c3055 c3084 c3204
cu295 2 c3079 c3140
cu296 1 c3176
cu299 3 c3039 c3083 c3204
cu300 3 c3040 c3083 c3204
cu304 4 c3039 c3061 c3083 c3183
cu305 4 c3077 c3080 c3152 c3204
cu321 6 c3041 c3048 c3053 c3054 c3055 c3074
cu323 5 c3041 c3048 c3055 c3084 c3183
cu324 5 c3041 c3048 c3055 c3091 c3183
cu326 4 c3033 c3048 c3091 c3204
cu330 2 c3047 c3119
cu331 4 c3047 c3077 c3078 c3141
cu332 4 c3047 c3077 c3080 c3168
cu333 3 c3028 c3047 c3061
cu334 4 c3035 c3077 c3078 c3141
cu335 4 c3047 c3048 c3077 c3080
cu336 4 c3041 c3048 c3055 c3084
cu337 4 c3041 c3048 c3053 c3055
cu338 5 c3041 c3044 c3048 c3055 c3189
cu340 4 c3049 c3052 c3085 c3091
cu341 3 c3052 c3085 c3204
cu343 5 c3049 c3052 c3084 c3085 c3091
cu345 2 c3049 c3189
cu429 3 c3047 c3089 c3168
cu430 3 c3047 c3078 c3089
cu433 8 c3049 c3052 c3053 c3054 c3085 c3091 c3189 c3204
cu434 8 c3049 c3052 c3053 c3054 c3084 c3085 c3091 c3204
cu435 4 c3028 c3035 c3053 c3134
cu436 4 c3028 c3035 c3055 c3134
cu437 5 c3035 c3041 c3055 c3091 c3204
cu439 4 c3057 c3080 c3091 c3168
cu441 4 c3039 c3052 c3084 c3091
cu442 7 c3039 c3052 c3053 c3054 c3084 c3085 c3091
cu445 3 c3043 c3092 c3803
cu464 2 c3113 c3204
cu465 2 c3047 c3061
cu469 6 c3062 c3079 c3119 c3140 c3176 c3184
cu470 5 c3033 c3038 c3053 c3054 c3119
cu471 3 c3033 c3038 c3119
cu474 4 c3075 c3240 c3799 c3800
cu551 4 c3033 c3052 c3152 c3193
cu552 4 c3052 c3119 c3152 c3193
cu565 4 c3039 c3093 c3203 c3204
cu566 3 c3039 c3093 c3203
cu567 3 c3039 c3044 c3203

UNAVAILABILITY_CONSTRAINTS:
c3028 0 0
c3028 0 5
c3028 0 6
c3028 0 11
c3028 1 0
c3028 1 5
c3028 1 6
c3028 1 11
c3028 2 0
c3028 2 1
c3028 2 2
c3028 2 6
c3028 2 11
c3028 3 0
c3028 3 5
c3028 3 6
c3028 3 11
c3028 4 0
c3028 4 1
c3028 4 2
c3028 4 3
c3028 4 4
c3028 4 5
c3028 4 6
c3028 4 11
c3028 5 0
c3028 5 1
c3028 5 2
c3028 5 3
c3028 5 4
c3033 0 1
c3033 0 3
c3033 0 5
c3033 0 6
c3033 0 7
c3033 1 1
c3033 1 3
c3033 1 5
c3033 1 6
c3033 2 0
c3033 2 7
c3033 2 9
c3033 2 11
c3033 3 1
c3033 3 3
c3033 3 5
c3033 3 7
c3033 3 9
c3033 3 11
c3033 4 1
c3033 4 3
c3033 4 5
c3033 4 7
c3033 4 9
c3033 4 11
c3033 5 1
c3033 5 3
c3035 0 7
c3035 0 8
c3035 0 9
c3035 0 10
c3035 0 11
c3035 1 7
c3035 1 8
c3035 1 9
c3035 1 10
c3035 1 11
c3035 2 7
c3035 2 8
c3035 2 9
c3035 2 10
c3035 2 11
c3035 3 7
c3035 3 8
c3035 3 9
c3035 3 10
c3035 3 11
c3035 4 0
c3035 4 7
c3035 4 8
c3035 4 9
c3035 4 10
c3035 4 11
c3035 5 0
c3035 5 1
c3035 5 2
c3035 5 3
c3035 5 4
c3038 0 0
c3038 0 1
c3038 0 2
c3038 0 3
c3038 0 4
c3038 1 0
c3038 1 1
c3038 1 2
c3038 1 3
c3038 1 4
c3038 1 5
c3038 2 0
c3038 2 1
c3038 2 2
c3038 2 3
c3038 3 0
c3038 3 1
c3038 3 2
c3038 3 3
c3038 3 4
c3038 4 0
c3038 4 1
c3038 4 2
c3038 4 3
c3038 4 4
c3038 5 0
c3038 5 1
c3038 5 2
c3038 5 3
c3038 5 4
c3039 0 0
c3039 0 1
c3039 0 2
c3039 0 3
c3039 0 4
c3039 0 5
c3039 0 6
c3039 0 7
c3039 0 8
c3039 0 9
c3039 0 10
c3039 0 11
c3039 4 0
c3039 4 1
c3039 4 4
c3039 4 5
c3039 4 6
c3039 4 7
c3039 4 8
c3039 4 9
c3039 4 10
c3039 4 11
c3039 5 0
c3039 5 1
c3039 5 2
c3039 5 3
c3039 5 4
c3040 0 0
c3040 0 1
c3040 1 0
c3040 1 1
c3040 2 0
c3040 2 1
c3040 3 0
c3040 3 1
c3040 3 2
c3040 3 3
c3040 3 4
c3040 3 5
c3040 3 6
c3040 3 7
c3040 3 8
c3040 3 9
c3040 3 10
c3040 3 11
c3040 4 0
c3040 4 1
c3040 4 2
c3040 4 3
c3040 4 4
c3040 4 5
c3040 4 6
c3040 4 7
c3040 4 8
c3040 4 9
c3040 4 10
c3040 4 11
c3040 5 0
c3040 5 1
c3040 5 2
c3040 5 3
c3040 5 4
c3041 0 0
c3041 0 11
c3041 1 0
c3041 1 11
c3041 2 0
c3041 2 11
c3041 3 0
c3041 3 11
c3041 4 0
c3041 4 10
c3041 4 11
c3041 5 0
c3041 5 1
c3041 5 2
c3041 5 3
c3041 5 4
c3043 0 1
c3043 0 2
c3043 0 6
c3043 0 9
c3043 0 10
c3043 0 11
c3043 1 0
c3043 1 1
c3043 1 2
c3043 1 3
c3043 1 4
c3043 1 5
c3043 1 6
c3043 2 6
c3043 2 7
c3043 2 8
c3043 3 6
c3043 4 0
c3043 4 1
c3043 4 2
c3043 4 6
c3043 4 8
c3043 4 9
c3043 5 0
c3043 5 1
c3043 5 2
c3043 5 3
c3043 5 4
c3044 0 0
c3044 0 1
c3044 1 0
c3044 1 1
c3044 2 0
c3044 2 1
c3044 3 0
c3044 3 1
c3044 3 2
c3044 3 3
c3044 3 4
c3044 3 5
c3044 3 6
c3044 3 7
c3044 3 8
c3044 3 9
c3044 3 10
c3044 3 11
c3044 4 0
c3044 4 1
c3044 4 2
c3044 4 3
c3044 4 4
c3044 4 5
c3044 4 6
c3044 4 7
c3044 4 8
c3044 4 9
c3044 4 10
c3044 4 11
c3044 5 0
c3044 5 1
c3044 5 2
c3044 5 3
c3044 5 4
c3047 1 0
c3047 1 1
c3047 1 2
c3047 1 3
c3047 1 4
c3047 1 5
c3047 2 0
c3047 2 1
c3047 2 2
c3047 2 3
c3047 5 0
c3047 5 1
c3047 5 2
c3047 5 3
c3047 5 4
c3048 5 0
c3048 5 1
c3048 5 2
c3048 5 3
c3048 5 4
c3049 0 0
c3049 0 2
c3049 0 9
c3049 0 10
c3049 1 1
c3049 1 9
c3049 1 10
c3049 2 1
c3049 2 8
c3049 2 9
c3049 2 10
c3049 3 1
c3049 3 3
c3049 3 5
c3049 3 7
c3049 3 9
c3049 3 11
c3049 4 1
c3049 4 3
c3049 4 5
c3049 4 6
c3049 4 8
c3049 4 10
c3049 5 1
c3049 5 3
c3052 1 0
c3052 1 2
c3052 1 4
c3052 3 8
c3052 3 10
c3052 5 0
c3052 5 1
c3052 5 2
c3052 5 3
c3053 0 0
c3053 0 1
c3053 0 2
c3053 0 3
c3053 0 4
c3053 0 5
c3053 0 6
c3053 0 7
c3053 0 8
c3053 0 9
c3053 0 10
c3053 1 0
c3053 1 1
c3053 1 2
c3053 1 3
c3053 1 4
c3053 1 5
c3053 1 6
c3053 3 7
c3053 3 8
c3053 3 9
c3053 3 10
c3053 3 11
c3053 4 0
c3053 4 1
c3053 4 2
c3053 4 3
c3053 4 4
c3053 4 5
c3053 4 6
c3053 4 7
c3053 4 8
c3053 4 9
c3053 4 10
c3053 4 11
c3053 5 0
c3053 5 2
c3053 5 4
c3054 0 0
c3054 0 1
c3054 0 2
c3054 0 3
c3054 0 4
c3054 0 5
c3054 5 0
c3054 5 1
c3054 5 2
c3054 5 3
c3054 5 4
c3055 0 0
c3055 0 7
c3055 0 8
c3055 0 9
c3055 0 10
c3055 0 11
c3055 1 0
c3055 1 7
c3055 1 8
c3055 1 9
c3055 1 10
c3055 1 11
c3055 2 0
c3055 2 7
c3055 2 8
c3055 2 9
c3055 2 10
c3055 2 11
c3055 3 0
c3055 3 7
c3055 3 8
c3055 3 9
c3055 3 10
c3055 3 11
c3055 4 0
c3055 5 0
c3055 5 1
c3055 5 2
c3055 5 3
c3055 5 4
c3057 0 6
c3057 0 8
c3057 0 10
c3057 1 6
c3057 1 8
c3057 1 10
c3057 2 6
c3057 2 8
c3057 2 10
c3057 3 6
c3057 3 8
c3057 3 10
c3057 4 6
c3057 4 8
c3057 4 10
c3057 5 0
c3057 5 1
c3057 5 2
c3057 5 3
c3057 5 4
c3061 0 0
c3061 0 1
c3061 0 2
c3061 0 10
c3061 0 11
c3061 1 0
c3061 1 1
c3061 1 2
c3061 1 10
c3061 1 11
c3061 2 0
c3061 2 1
c3061 2 2
c3061 2 10
c3061 2 11
c3061 3 0
c3061 3 1
c3061 3 2
c3061 3 3
c3061 3 4
c3061 3 5
c3061 3 6
c3061 3 7
c3061 3 8
c3061 3 9
c3061 3 10
c3061 3 11
c3061 4 0
c3061 4 1
c3061 4 2
c3061 4 10
c3061 4 11
c3061 5 0
c3061 5 1
c3061 5 2
c3061 5 3
c3061 5 4
c3062 5 0
c3062 5 1
c3062 5 2
c3062 5 3
c3062 5 4
c3074 0 0
c3074 0 1
c3074 0 2
c3074 0 3
c3074 1 0
c3074 2 0
c3074 3 0
c3074 3 7
c3074 3 9
c3074 3 11
c3074 4 0
c3074 4 1
c3074 4 3
c3074 4 5
c3074 4 7
c3074 4 9
c3074 4 11
c3074 5 0
c3074 5 1
c3074 5 2
c3074 5 3
c3074 5 4
c3075 0 0
c3075 0 1
c3075 0 2
c3075 0 3
c3075 0 4
c3075 0 5
c3075 0 6
c3075 0 7
c3075 0 8
c3075 0 9
c3075 0 10
c3075 0 11
c3075 1 0
c3075 1 1
c3075 1 2
c3075 2 0
c3075 3 0
c3075 3 5
c3075 3 6
c3075 3 7
c3075 3 8
c3075 3 9
c3075 3 10
c3075 3 11
c3075 4 0
c3075 4 1
c3075 4 2
c3075 4 3
c3075 4 4
c3075 4 5
c3075 4 6
c3075 4 7
c3075 4 8
c3075 4 9
c3075 4 10
c3075 4 11
c3075 5 0
c3075 5 1
c3075 5 2
c3075 5 3
c3075 5 4
c3077 0 0
c3077 0 1
c3077 0 2
c3077 0 3
c3077 0 4
c3077 0 5
c3077 4 7
c3077 4 8
c3077 4 9
c3077 4 10
c3077 4 11
c3077 5 0
c3077 5 1
c3077 5 2
c3077 5 3
c3077 5 4
c3078 0 1
c3078 0 9
c3078 0 11
c3078 1 1
c3078 1 9
c3078 1 11
c3078 2 1
c3078 2 9
c3078 2 11
c3078 3 1
c3078 3 3
c3078 3 5
c3078 3 7
c3078 3 9
c3078 3 11
c3078 4 1
c3078 4 3
c3078 4 5
c3078 4 7
c3078 4 9
c3078 4 11
c3078 5 1
c3078 5 3
c3079 0 1
c3079 0 9
c3079 0 11
c3079 1 1
c3079 1 9
c3079 1 11
c3079 2 1
c3079 2 9
c3079 2 11
c3079 3 1
c3079 3 3
c3079 3 5
c3079 3 7
c3079 3 9
c3079 3 11
c3079 4 1
c3079 4 3
c3079 4 5
c3079 4 7
c3079 4 9
c3079 4 11
c3079 5 1
c3079 5 3
c3080 3 0
c3080 3 1
c3080 3 2
c3080 3 3
c3080 3 4
c3080 3 5
c3080 3 6
c3080 3 7
c3080 3 8
c3080 3 9
c3080 3 10
c3080 3 11
c3080 4 0
c3080 4 1
c3080 4 2
c3080 4 3
c3080 4 4
c3080 4 5
c3080 4 6
c3080 4 7
c3080 4 8
c3080 4 9
c3080 4 10
c3080 4 11
c3080 5 0
c3080 5 1
c3080 5 2
c3080 5 3
c3080 5 4
c3084 0 0
c3084 0 1
c3084 0 2
c3084 0 3
c3084 0 4
c3084 0 5
c3084 5 0
c3084 5 1
c3084 5 2
c3084 5 3
c3085 0 0
c3085 0 1
c3085 0 2
c3085 0 3
c3085 0 4
c3085 0 5
c3085 0 10
c3085 0 11
c3085 1 0
c3085 1 1
c3085 1 2
c3085 1 3
c3085 1 4
c3085 1 5
c3085 1 6
c3085 1 7
c3085 1 8
c3085 1 9
c3085 1 10
c3085 1 11
c3085 2 0
c3085 2 1
c3085 2 2
c3085 2 3
c3085 3 9
c3085 3 10
c3085 3 11
c3085 4 0
c3085 4 1
c3085 4 2
c3085 4 3
c3085 4 4
c3085 4 5
c3085 4 6
c3085 4 7
c3085 4 8
c3085 4 9
c3085 4 10
c3085 4 11
c3085 5 0
c3085 5 1
c3085 5 2
c3085 5 3
c3085 5 4
c3089 0 0
c3089 0 2
c3089 0 3
c3089 0 5
c3089 0 10
c3089 0 11
c3089 1 0
c3089 1 2
c3089 1 3
c3089 1 5
c3089 1 10
c3089 1 11
c3089 2 0
c3089 2 3
c3089 2 10
c3089 2 11
c3089 3 0
c3089 3 4
c3089 3 5
c3089 3 10
c3089 3 11
c3089 4 0
c3089 4 4
c3089 4 5
c3089 4 6
c3089 4 7
c3089 4 8
c3089 4 9
c3089 4 10
c3089 4 11
c3089 5 0
c3089 5 1
c3089 5 2
c3089 5 3
c3089 5 4
c3091 0 0
c3091 0 2
c3091 0 4
c3091 0 6
c3091 0 8
c3091 0 10
c3091 1 0
c3091 1 2
c3091 1 4
c3091 1 6
c3091 3 4
c3091 3 6
c3091 3 8
c3091 3 10
c3091 4 0
c3091 4 2
c3091 4 4
c3091 4 6
c3091 4 8
c3091 4 10
c3091 5 0
c3091 5 1
c3091 5 2
c3091 5 3
c3091 5 4
c3092 0 0
c3092 0 5
c3092 1 0
c3092 1 5
c3092 2 0
c3092 2 1
c3092 2 2
c3092 2 3
c3092 3 0
c3092 3 5
c3092 4 0
c3092 4 5
c3092 5 0
c3092 5 1
c3092 5 2
c3092 5 3
c3092 5 4
c3093 0 0
c3093 0 1
c3093 0 2
c3093 0 3
c3093 0 4
c3093 0 5
c3093 0 6
c3093 0 7
c3093 0 8
c3093 0 9
c3093 0 10
c3093 0 11
c3093 3 11
c3093 4 0
c3093 4 1
c3093 4 2
c3093 4 3
c3093 4 4
c3093 4 5
c3093 4 6
c3093 4 7
c3093 4 8
c3093 4 9
c3093 4 10
c3093 4 11
c3093 5 0
c3093 5 1
c3093 5 2
c3093 5 3
c3093 5 4
c3113 0 0
c3113 0 1
c3113 0 10
c3113 0 11
c3113 1 0
c3113 1 10
c3113 1 11
c3113 2 0
c3113 2 10
c3113 2 11
c3113 3 0
c3113 3 10
c3113 3 11
c3113 4 0
c3113 4 1
c3113 4 2
c3113 4 3
c3113 4 4
c3113 4 5
c3113 4 6
c3113 4 7
c3113 4 8
c3113 4 9
c3113 4 10
c3113 4 11
c3113 5 0
c3113 5 1
c3113 5 2
c3113 5 3
c3113 5 4
c3119 5 0
c3119 5 1
c3119 5 2
c3119 5 3
c3119 5 4
c3134 0 0
c3134 0 1
c3134 0 2
c3134 0 3
c3134 1 0
c3134 2 0
c3134 3 0
c3134 3 7
c3134 3 9
c3134 3 11
c3134 4 0
c3134 4 1
c3134 4 3
c3134 4 5
c3134 4 7
c3134 4 9
c3134 4 11
c3134 5 0
c3134 5 1
c3134 5 2
c3134 5 3
c3134 5 4
c3140 0 1
c3140 0 3
c3140 0 5
c3140 0 7
c3140 0 9
c3140 0 11
c3140 1 1
c3140 1 3
c3140 1 5
c3140 1 6
c3140 2 0
c3140 2 6
c3140 2 7
c3140 3 1
c3140 3 4
c3140 3 5
c3140 3 7
c3140 3 9
c3140 3 11
c3140 4 1
c3140 4 3
c3140 4 5
c3140 4 7
c3140 4 9
c3140 4 11
c3140 5 1
c3140 5 3
c3141 0 1
c3141 0 3
c3141 0 5
c3141 0 7
c3141 0 9
c3141 0 11
c3141 1 1
c3141 1 3
c3141 1 5
c3141 1 6
c3141 2 0
c3141 2 6
c3141 2 7
c3141 3 1
c3141 3 4
c3141 3 5
c3141 3 7
c3141 3 9
c3141 3 11
c3141 4 1
c3141 4 3
c3141 4 5
c3141 4 7
c3141 4 9
c3141 4 11
c3141 5 1
c3141 5 3
c3152 0 0
c3152 0 1
c3152 0 2
c3152 0 3
c3152 0 4
c3152 0 5
c3152 0 6
c3152 0 7
c3152 0 8
c3152 0 9
c3152 0 10
c3152 0 11
c3152 1 0
c3152 1 1
c3152 1 2
c3152 1 3
c3152 1 4
c3152 1 5
c3152 1 6
c3152 1 7
c3152 1 8
c3152 1 9
c3152 1 10
c3152 1 11
c3152 4 10
c3152 5 0
c3152 5 1
c3152 5 2
c3152 5 3
c3152 5 4
c3168 4 1
c3168 4 3
c3168 4 5
c3168 4 6
c3168 4 7
c3168 4 8
c3168 4 9
c3168 4 10
c3168 4 11
c3168 5 0
c3168 5 1
c3168 5 2
c3168 5 3
c3168 5 4
c3176 3 0
c3176 3 1
c3176 3 2
c3176 3 3
c3176 3 4
c3176 3 5
c3176 3 6
c3176 3 7
c3176 3 8
c3176 3 9
c3176 3 10
c3176 3 11
c3176 4 0
c3176 4 1
c3176 4 2
c3176 4 3
c3176 4 4
c3176 4 5
c3176 4 6
c3176 4 7
c3176 4 8
c3176 4 9
c3176 4 10
c3176 4 11
c3176 5 0
c3176 5 1
c3176 5 2
c3176 5 3
c3176 5 4
c3183 0 1
c3183 0 2
c3183 0 3
c3183 0 4
c3183 0 5
c3183 0 6
c3183 0 7
c3183 0 8
c3183 0 9
c3183 0 10
c3183 0 11
c3183 1 1
c3183 1 2
c3183 1 3
c3183 1 4
c3183 1 5
c3183 1 6
c3183 1 7
c3183 1 8
c3183 1 9
c3183 1 10
c3183 1 11
c3183 2 0
c3183 2 1
c3183 2 2
c3183 2 3
c3183 2 6
c3183 2 7
c3183 2 8
c3183 5 0
c3183 5 1
c3183 5 2
c3183 5 3
c3183 5 4
c3184 0 1
c3184 0 2
c3184 0 3
c3184 0 4
c3184 0 5
c3184 0 6
c3184 0 7
c3184 0 8
c3184 0 9
c3184 0 10
c3184 0 11
c3184 1 1
c3184 1 2
c3184 1 3
c3184 1 4
c3184 1 5
c3184 1 6
c3184 1 7
c3184 1 8
c3184 1 9
c3184 1 10
c3184 1 11
c3184 2 0
c3184 2 1
c3184 2 2
c3184 2 3
c3184 2 6
c3184 2 7
c3184 2 8
c3189 0 0
c3189 0 1
c3189 0 2
c3189 0 3
c3189 0 4
c3189 0 5
c3189 0 6
c3189 0 7
c3189 0 8
c3189 0 9
c3189 0 10
c3189 0 11
c3189 3 11
c3189 4 0
c3189 4 1
c3189 4 2
c3189 4 3
c3189 4 4
c3189 4 5
c3189 4 6
c3189 4 7
c3189 4 8
c3189 4 9
c3189 4 10
c3189 4 11
c3189 5 0
c3189 5 1
c3189 5 2
c3189 5 3
c3189 5 4
c3193 0 1
c3193 0 2
c3193 0 3
c3193 0 4
c3193 0 5
c3193 0 6
c3193 2 6
c3193 2 7
c3193 2 8
c3193 2 9
c3193 2 10
c3193 2 11
c3193 3 0
c3193 3 1
c3193 3 2
c3193 3 3
c3193 3 4
c3193 3 5
c3193 3 6
c3193 3 8
c3193 3 10
c3193 4 0
c3193 4 2
c3193 4 4
c3193 4 6
c3193 4 8
c3193 4 10
c3193 5 0
c3193 5 2
c3193 5 4
c3203 0 1
c3203 0 3
c3203 1 1
c3203 1 3
c3203 2 1
c3203 2 3
c3203 3 1
c3203 3 3
c3203 4 1
c3203 4 3
c3203 5 1
c3203 5 3
c3204 5 2
c3204 5 3
c3204 5 4
c3240 0 11
c3240 1 11
c3240 2 11
c3240 3 11
c3240 4 11
c3240 5 0
c3240 5 2
c3240 5 4
c3799 0 6
c3799 0 7
c3799 0 8
c3799 0 9
c3799 0 10
c3799 0 11
c3799 1 6
c3799 1 8
c3799 1 10
c3799 2 6
c3799 2 8
c3799 2 10
c3799 3 6
c3799 3 8
c3799 3 9
c3799 3 10
c3799 3 11
c3799 4 6
c3799 4 8
c3799 4 10
c3799 5 0
c3799 5 1
c3799 5 2
c3799 5 3
c3799 5 4
c3800 0 0
c3800 0 1
c3800 0 2
c3800 0 3
c3800 0 11
c3800 1 0
c3800 1 1
c3800 1 2
c3800 1 3
c3800 1 11
c3800 2 0
c3800 2 1
c3800 2 2
c3800 2 3
c3800 2 11
c3800 3 0
c3800 3 1
c3800 3 2
c3800 3 3
c3800 3 11
c3800 4 0
c3800 4 1
c3800 4 2
c3800 4 3
c3800 4 11
c3800 5 0
c3800 5 1
c3800 5 2
c3800 5 3
c3800 5 4
c3803 0 0
c3803 0 1
c3803 0 3
c3803 0 5
c3803 0 7
c3803 0 9
c3803 0 10
c3803 0 11
c3803 1 5
c3803 1 10
c3803 1 11
c3803 2 7
c3803 2 9
c3803 2 10
c3803 2 11
c3803 3 5
c3803 3 7
c3803 3 9
c3803 3 10
c3803 3 11
c3803 4 5
c3803 4 7
c3803 4 9
c3803 4 10
c3803 4 11
c3803 5 0
c3803 5 1
c3803 5 2
c3803 5 3
c3803 5 4

ROOM_CONSTRAINTS:
c3043 r117
c3043 r118
c3043 r118
c3043 r126
c3043 r126
c3043 r118
c3043 r117
c3043 r116
c3043 r116
c3043 r126
c3075 r126
c3075 r126
c3075 r126
c3075 r118
c3075 r117
c3075 r116
c3075 r116
c3089 r126
c3089 r126
c3089 r126
c3089 r118
c3089 r117
c3089 r116
c3089 r116
c3092 r126
c3092 r126
c3092 r126
c3092 r118
c3092 r117
c3092 r116
c3092 r116
c3240 r126
c3240 r126
c3240 r126
c3240 r118
c3240 r117
c3240 r116
c3240 r116
c3799 r126
c3799 r126
c3799 r126
c3799 r118
c3799 r117
c3799 r116
c3799 r116
c3800 r126
c3800 r126
c3800 r126
c3800 r118
c3800 r117
c3800 r116
c3800 r116
c3803 r126
c3803 r126
c3803 r126
c3803 r118
c3803 r117
c3803 r116
c3803 r116

END.
